
Gurobi 9.0.2 (win64) logging started Sat Oct 10 17:34:10 2020

Changed value of parameter logfile to result\v6.2-20201010T1221\scenario_2030_eff085_cab4000.log
   Prev:   Default: 
Gurobi Optimizer version 9.0.2 build v9.0.2rc0 (win64)
Optimize a model with 1384150 rows, 884815 columns and 3912197 nonzeros
Model fingerprint: 0xbc66dbb2
Coefficient statistics:
  Matrix range     [1e-07, 4e+05]
  Objective range  [1e+00, 1e+00]
  Bounds range     [0e+00, 0e+00]
  RHS range        [2e-05, 3e+08]
Warning: Model contains large matrix coefficient range
         Consider reformulating model or setting NumericFocus parameter
         to avoid numerical issues.

Concurrent LP optimizer: primal simplex, dual simplex, and barrier
Showing barrier log only...

Presolve removed 1129315 rows and 656241 columns
Presolve time: 5.26s
Presolved: 254835 rows, 342440 columns, 891938 nonzeros

Ordering time: 0.22s

Barrier statistics:
 Dense cols : 9
 AA' NZ     : 8.194e+05
 Factor NZ  : 4.461e+06 (roughly 300 MBytes of memory)
 Factor Ops : 1.125e+08 (less than 1 second per iteration)
 Threads    : 30

                  Objective                Residual
Iter       Primal          Dual         Primal    Dual     Compl     Time
   0  -2.05099722e+16 -1.58516170e+15  6.15e+06 1.56e+04  2.46e+12     6s
   1  -3.14417135e+15 -1.58947300e+15  9.35e+05 4.73e+06  8.13e+11     7s
   2  -1.32318279e+15 -1.27422725e+15  3.91e+05 7.35e+05  2.11e+11     7s
   3  -4.37221577e+14 -1.03636983e+15  1.27e+05 1.78e+05  6.37e+10     7s
   4  -9.90279842e+13 -6.29075753e+14  2.73e+04 4.35e+04  1.49e+10     8s
   5  -3.60558398e+13 -4.22447070e+14  1.05e+04 2.12e+04  6.56e+09     8s
   6  -1.64180563e+13 -3.52380428e+14  5.05e+03 1.50e+04  4.00e+09     8s
   7  -8.32184750e+12 -1.90851190e+14  2.73e+03 3.72e+03  1.47e+09     8s
   8  -2.22295554e+12 -9.93079929e+13  9.11e+02 6.06e+02  4.01e+08     9s
   9   7.08093006e+11 -2.43298826e+13  9.54e+00 1.98e+01  3.97e+07     9s
  10   3.47605302e+11 -1.90336765e+12  1.91e-01 1.30e+00  3.38e+06     9s
  11   1.63138217e+11 -6.24908370e+11  6.34e-02 2.82e-01  1.16e+06    10s
  12   6.60345527e+10 -2.79559990e+11  2.12e-02 2.76e-02  5.03e+05    10s
  13   5.42800604e+10 -1.71243578e+11  1.69e-02 1.12e-08  3.28e+05    10s
  14   3.33114386e+10 -1.35341343e+11  9.28e-03 1.12e-08  2.45e+05    11s
  15   1.81554240e+10 -7.43636313e+10  4.13e-03 1.12e-08  1.34e+05    11s
  16   1.28361055e+10 -7.63440055e+09  1.27e-03 1.49e-08  2.96e+04    11s
  17   9.50031291e+09  9.69978421e+08  5.23e-04 9.31e-09  1.23e+04    11s
  18   8.67220804e+09  4.01766148e+09  3.38e-04 5.59e-09  6.73e+03    12s
  19   8.17267676e+09  4.85231765e+09  2.27e-04 5.59e-09  4.80e+03    12s
  20   8.03128732e+09  4.99613142e+09  1.96e-04 5.59e-09  4.39e+03    12s
  21   7.96189710e+09  5.29991356e+09  1.82e-04 5.59e-09  3.85e+03    13s
  22   7.75764092e+09  5.46777604e+09  1.36e-04 5.59e-09  3.31e+03    13s
  23   7.56396433e+09  6.02361182e+09  9.36e-05 3.73e-09  2.22e+03    13s
  24   7.36385745e+09  6.21339512e+09  4.93e-05 2.79e-09  1.66e+03    14s
  25   7.26597028e+09  6.57099500e+09  3.00e-05 2.79e-09  1.00e+03    14s
  26   7.19845604e+09  6.65640612e+09  1.72e-05 2.79e-09  7.83e+02    15s
  27   7.17251504e+09  6.67230465e+09  1.20e-05 2.79e-09  7.22e+02    15s
  28   7.16437190e+09  6.70550712e+09  1.06e-05 2.79e-09  6.62e+02    15s
  29   7.14234404e+09  6.85951418e+09  6.80e-06 2.79e-09  4.08e+02    16s
  30   7.12463457e+09  6.90552089e+09  3.94e-06 2.79e-09  3.16e+02    16s
  31   7.11528167e+09  6.93565894e+09  2.44e-06 1.86e-09  2.59e+02    16s
  32   7.10825142e+09  6.96529408e+09  1.44e-06 1.86e-09  2.06e+02    17s
  33   7.10462713e+09  6.99362967e+09  9.38e-07 1.86e-09  1.60e+02    17s
  34   7.10192038e+09  7.00814242e+09  5.82e-07 1.86e-09  1.35e+02    18s
  35   7.10014349e+09  7.03248051e+09  3.11e-07 1.86e-09  9.77e+01    18s
  36   7.09847158e+09  7.05174815e+09  1.03e-07 1.86e-09  6.74e+01    18s
  37   7.09798378e+09  7.06023662e+09  6.64e-08 1.86e-09  5.45e+01    19s
  38   7.09774779e+09  7.06618519e+09  1.84e-07 1.86e-09  4.56e+01    19s
  39   7.09744371e+09  7.07446195e+09  2.69e-07 1.86e-09  3.32e+01    19s
  40   7.09706274e+09  7.08075966e+09  1.19e-07 1.86e-09  2.35e+01    20s
  41   7.09681255e+09  7.08526578e+09  9.20e-08 1.86e-09  1.67e+01    20s
  42   7.09665732e+09  7.09074168e+09  2.51e-07 1.86e-09  8.54e+00    20s
  43   7.09660806e+09  7.09179328e+09  1.80e-07 1.86e-09  6.95e+00    21s
  44   7.09660519e+09  7.09261610e+09  8.68e-08 1.86e-09  5.76e+00    21s
  45   7.09656359e+09  7.09513069e+09  8.87e-08 1.86e-09  2.07e+00    21s
  46   7.09654384e+09  7.09540429e+09  9.90e-08 2.79e-09  1.64e+00    21s
  47   7.09652268e+09  7.09633905e+09  6.96e-08 2.79e-09  2.65e-01    22s
  48   7.09651272e+09  7.09650252e+09  1.73e-07 2.79e-09  1.47e-02    22s
  49   7.09651152e+09  7.09651097e+09  8.55e-09 2.79e-09  7.99e-04    22s
  50   7.09651146e+09  7.09651146e+09  4.16e-06 4.49e-09  9.79e-06    23s
  51   7.09651146e+09  7.09651146e+09  1.37e-03 1.03e-05  9.79e-06    23s

Barrier solved model in 51 iterations and 22.94 seconds
Optimal objective 7.09651146e+09

Crossover log...

   75995 DPushes remaining with DInf 0.0000000e+00                23s
    5455 DPushes remaining with DInf 0.0000000e+00                25s
       0 DPushes remaining with DInf 0.0000000e+00                27s
Warning: Markowitz tolerance tightened to 0.5

   93059 PPushes remaining with PInf 5.0087116e-03                28s
   43498 PPushes remaining with PInf 7.3197922e-02                30s
   27730 PPushes remaining with PInf 2.9817492e-02                37s
       0 PPushes remaining with PInf 0.0000000e+00                44s

  Push phase complete: Pinf 0.0000000e+00, Dinf 3.6837511e+00     44s

Iteration    Objective       Primal Inf.    Dual Inf.      Time
  120784    7.0965115e+09   0.000000e+00   3.683751e+00     44s
  120859    7.0965115e+09   0.000000e+00   0.000000e+00     47s

Solved with barrier
Solved in 120859 iterations and 46.68 seconds
Optimal objective  7.096511461e+09
Warning: unscaled primal violation = 0.000864765 and residual = 0.000864765
